p cnf 2340 2252
c ind 953 954 955 956 957 958 959 960 961 962 0
c ind 963 1165 964 965 966 873 874 875 876 967 0
c ind 877 968 878 879 880 969 881 970 882 883 0
c ind 884 885 971 886 887 888 889 890 891 972 0
c ind 892 973 893 974 975 894 895 896 897 1374 0
c ind 1375 1376 1377 976 1378 977 1379 1380 978 979 0
c ind 1381 1382 1383 1384 1385 980 799 1386 1387 1388 0
c ind 1389 981 1390 982 1391 1392 983 984 1393 1394 0
c ind 1120 985 986 1121 1122 1123 987 1124 1125 1126 0
c ind 1127 1128 1129 1130 988 1131 1132 1133 1134 1135 0
c ind 1136 989 1137 990 1138 1139 991 1140 992 1141 0
c ind 1142 1143 1144 1145 1146 1147 1148 1149 1150 1151 0
c ind 800 1152 1153 1154 1155 1156 1157 1158 1159 1160 0
c ind 1161 898 899 900 901 902 903 904 905 906 0
c ind 907 908 909 910 911 912 913 914 915 916 0
c ind 917 918 919 920 921 922 923 924 925 926 0
c ind 927 1162 928 929 930 931 932 933 934 935 0
c ind 936 937 938 939 1344 1345 1346 1347 1348 1349 0
c ind 1350 1351 1352 1353 1354 1355 1356 1357 1358 1359 0
c ind 1360 1361 1362 1363 1364 1365 1366 1367 1368 1369 0
c ind 1370 1371 1372 1373 756 757 758 759 760 761 0
c ind 762 763 764 765 766 767 768 769 770 771 0
c ind 772 773 774 775 776 777 778 779 780 781 0
c ind 782 783 784 1163 785 786 787 788 789 790 0
c ind 791 792 793 794 795 796 797 798 801 802 0
c ind 803 804 805 806 807 808 809 810 811 812 0
c ind 813 814 815 816 817 818 819 820 821 822 0
c ind 823 824 825 1164 826 827 828 829 830 831 0
c ind 832 833 834 835 836 837 838 839 840 841 0
c ind 842 843 844 845 846 847 848 849 850 851 0
c ind 852 853 854 855 856 857 858 859 860 861 0
c ind 862 863 864 865 866 867 868 869 870 871 0
c ind 872 940 941 942 943 944 945 946 947 948 0
c ind 949 950 951 952 0
614 -615 -713 0
614 -615 724 0
614 -615 640 0
-614 615 0
-640 713 -614 -724 0
615 -616 -630 -637 -639 0
-615 639 0
-615 616 0
-615 637 0
-615 630 0
616 617 -621 0
-616 -617 0
-616 621 0
-618 -1375 617 0
-620 -1375 617 0
-619 -1375 617 0
-617 1375 0
-617 618 619 620 0
618 -1381 1382 1383 0
-618 1381 0
-618 -1383 0
-618 -1382 0
619 1381 1384 1385 0
-619 -1381 0
-619 -1385 0
-619 -1384 0
620 -1376 1377 1378 0
-620 1376 0
-620 -1378 0
-620 -1377 0
621 622 626 -1126 -1154 0
-621 1154 0
-621 -626 0
-621 1126 0
-621 -622 0
623 1127 622 1128 1129 0
-622 -623 0
-622 -1129 0
-622 -1127 0
-622 -1128 0
623 624 -1132 0
623 624 625 -1133 0
-623 -624 0
-623 -625 1132 0
-623 1132 1133 0
624 1130 -1131 0
-624 -1130 0
-624 1131 0
625 1138 1139 0
625 1138 1146 1147 0
-625 -1138 0
-625 -1139 -1146 0
-625 -1139 -1147 0
627 1155 626 1156 1157 0
-626 -627 0
-626 -1157 0
-626 -1155 0
-626 -1156 0
627 628 -1160 0
627 628 629 -1161 0
-627 -628 0
-627 -629 1160 0
-627 1160 1161 0
628 1158 -1159 0
-628 -1158 0
-628 1159 0
629 902 903 0
629 902 910 911 0
-629 -902 0
-629 -903 -910 0
-629 -903 -911 0
630 631 635 -824 0
630 631 634 -824 0
-630 824 0
-630 -631 0
-634 -635 -630 0
-632 -633 631 -775 0
-632 -633 631 -776 0
-631 633 0
-631 632 0
-631 775 776 0
632 778 779 780 781 0
-632 -781 0
-632 -780 0
-632 -778 0
-632 -779 0
633 -772 -773 -774 777 0
-633 774 0
-633 -777 0
-633 772 0
-633 773 0
634 -786 -793 0
-634 786 0
-634 793 0
635 -636 -794 795 0
-635 794 0
-635 -795 0
-635 636 0
636 797 -798 -801 802 0
-636 -797 0
-636 -802 0
-636 801 0
-636 798 0
637 638 -853 0
637 -853 1165 0
-637 853 0
-638 -1165 -637 0
638 1362 1363 1364 0
-638 -1362 0
-638 -1364 0
-638 -1363 0
639 -1162 -1163 0
639 -800 1164 0
639 -800 -1163 0
639 -1162 1164 0
1163 -1164 -639 0
800 1162 -639 0
640 -641 705 1331 0
640 -641 -705 -1331 0
-640 641 0
-640 705 -1331 0
-640 -705 1331 0
641 -642 695 1322 0
641 -642 -695 -1322 0
-641 642 0
-641 695 -1322 0
-641 -695 1322 0
642 -643 -684 998 0
642 -643 684 -998 0
642 -643 694 998 0
-642 643 0
-642 -684 -998 0
-642 684 -694 998 0
643 -683 -644 1302 0
643 683 -644 -1302 0
-643 644 0
-643 -683 -1302 0
-643 683 1302 0
644 645 661 669 -677 0
-644 677 0
-644 -669 0
-644 -645 0
-644 -661 0
654 659 645 -786 0
646 654 645 659 0
-645 -659 0
-645 -654 0
-645 -646 786 0
646 647 631 653 0
646 647 631 -650 0
-631 -646 0
-646 -647 0
-646 650 -653 0
647 -648 -765 1165 0
616 647 765 1165 0
-647 -1165 0
-647 648 -765 0
-647 765 -616 0
616 648 649 0
648 -649 962 0
-648 649 -616 0
-648 -649 -962 0
649 1349 -1351 0
-649 -1349 0
-649 1351 0
648 650 -651 0
-648 -650 0
-650 651 0
651 652 -1362 0
651 652 -1363 0
651 652 -1364 0
-651 -652 0
-651 1362 1363 1364 0
652 1370 -1372 0
-652 -1370 0
-652 1372 0
653 963 -1165 0
652 653 -1165 0
-653 1165 0
-652 -653 -963 0
654 -655 -658 -965 0
654 655 -656 -658 0
-654 658 0
-654 -655 965 0
-654 655 656 0
655 819 -821 0
-655 -819 0
-655 821 0
656 -657 -964 0
-646 656 657 0
-656 -657 964 0
646 -656 657 0
657 789 -791 0
-657 -789 0
-657 791 0
658 -786 793 0
-658 786 0
-658 -793 0
-656 659 -660 0
656 -659 0
-659 660 0
635 660 -786 -793 0
-660 786 0
-660 793 0
-635 -660 0
663 786 661 0
657 662 661 663 0
-661 -663 0
-661 -662 -786 0
-657 -661 -786 0
-655 662 793 -979 0
655 -662 0
-662 979 0
-662 -793 0
663 664 631 668 0
663 664 631 -667 0
-631 -663 0
-663 -664 0
-663 667 -668 0
664 -666 -765 1165 0
664 665 765 1165 0
-664 -1165 0
-664 666 -765 0
-664 -665 765 0
665 -1163 -616 0
-665 1163 0
616 -665 0
-649 666 976 0
649 665 666 0
-649 -666 -976 0
649 -665 -666 0
-651 666 667 0
651 -667 0
-666 -667 0
668 977 -1165 0
652 668 -1165 0
-668 1165 0
-652 -668 -977 0
672 675 669 0
621 669 672 0
-670 675 -621 669 0
-669 -675 -621 0
621 -669 -672 0
-669 670 -672 0
670 -671 957 0
-670 -957 0
-670 671 0
671 -949 951 0
-671 949 0
-671 -951 0
672 -673 -987 0
-672 987 0
-672 673 0
673 -766 923 0
673 674 923 0
673 -765 923 0
-673 -923 0
-673 -674 765 766 0
674 767 768 769 1165 0
-674 -1165 0
-674 -769 0
-674 -767 0
-674 -768 0
673 675 676 -955 0
671 673 675 676 0
-675 -676 0
-673 -675 0
-671 -675 955 0
-617 676 949 0
676 878 949 986 0
-676 -949 0
-676 -878 617 0
-676 -986 617 0
677 678 -637 -630 -853 0
637 -677 0
-677 -678 0
-677 853 0
630 -677 0
662 -682 678 978 0
662 679 678 -682 0
-678 682 0
-662 -678 0
-678 -679 -978 0
679 680 681 0
636 679 680 -786 0
-679 -680 0
-679 -681 786 0
-636 -679 -681 0
-655 680 793 0
-680 -793 0
655 -680 0
681 -793 -794 795 0
-681 793 0
-681 794 0
-681 -795 0
-657 682 -786 0
679 682 -786 0
-682 786 0
657 -679 -682 0
-671 683 -637 -630 -621 0
671 -683 0
621 -683 0
637 -683 0
630 -683 0
684 691 693 -786 0
684 685 691 693 0
-684 -693 0
-684 -691 0
-684 -685 786 0
685 686 631 690 0
685 686 631 -689 0
-631 -685 0
-685 -686 0
-685 689 -690 0
686 687 959 -1165 0
652 686 687 -1165 0
-686 1165 0
-686 -687 0
-652 -686 -959 0
-651 687 688 0
651 -687 0
-687 -688 0
649 688 1164 0
-649 688 958 0
616 649 688 0
-649 -688 -958 0
649 -688 -616 -1164 0
689 765 -616 -1164 0
649 689 -616 -1164 0
616 -689 0
-689 1164 0
-649 -689 -765 0
649 690 1165 0
690 765 1165 0
690 958 1165 0
-690 -1165 0
-649 -690 -765 -958 0
655 -658 691 -692 0
-655 -658 691 -961 0
658 -691 0
655 -691 692 0
-655 -691 961 0
-657 692 -960 0
657 -685 692 0
-657 -692 960 0
657 685 -692 0
-660 -692 693 0
660 -693 0
692 -693 0
694 -824 -853 0
-694 824 0
-694 853 0
695 702 -694 0
695 696 -694 -699 0
694 -695 0
-695 -696 -702 0
-695 699 -702 0
696 -698 -765 1165 0
696 697 765 1165 0
-696 -1165 0
-696 698 -765 0
-696 -697 765 0
697 -971 -616 0
-697 971 0
616 -697 0
-649 698 972 0
649 697 698 0
-649 -698 -972 0
649 -697 -698 0
699 700 -701 0
-651 698 699 -701 0
-699 701 0
-698 -699 -700 0
651 -699 -700 0
700 973 -1165 0
652 700 -1165 0
-700 1165 0
-652 -700 -973 0
682 701 631 0
-631 -701 0
-682 -701 0
655 702 703 0
658 702 703 0
702 703 975 0
-702 -703 0
-655 -658 -702 -975 0
-657 703 -704 -974 0
-703 974 0
657 -703 0
-703 704 0
-679 704 -786 0
-704 786 0
679 -704 0
705 711 -694 0
705 706 -694 -709 0
694 -705 0
-705 -706 -711 0
-705 709 -711 0
706 -708 -765 1165 0
706 707 765 1165 0
-706 -1165 0
-706 708 -765 0
-706 -707 765 0
707 -980 -616 0
-707 980 0
616 -707 0
-649 708 981 0
649 707 708 0
-649 -708 -981 0
649 -707 -708 0
-701 709 710 0
-651 -701 708 709 0
701 -709 0
651 -709 -710 0
-708 -709 -710 0
710 982 -1165 0
652 710 -1165 0
-710 1165 0
-652 -710 -982 0
655 711 712 0
658 711 712 0
711 712 984 0
-711 -712 0
-655 -658 -711 -984 0
-657 -704 712 -983 0
-712 983 0
657 -712 0
704 -712 0
713 -714 1339 0
713 714 -1339 0
-713 -714 -1339 0
-713 714 1339 0
714 -715 -694 0
714 723 -694 0
694 -714 0
-714 715 -723 0
655 -658 715 -716 0
-655 -658 715 -992 0
658 -715 0
655 -715 716 0
-655 -715 992 0
-657 716 -991 0
657 716 -717 0
-657 -716 991 0
657 -716 717 0
717 718 631 722 0
717 718 631 -721 0
-631 -717 0
-717 -718 0
-717 721 -722 0
718 -720 -765 1165 0
718 719 765 1165 0
-718 -1165 0
-718 720 -765 0
-718 -719 765 0
719 -988 -616 0
-719 988 0
616 -719 0
-649 720 989 0
649 719 720 0
-649 -720 -989 0
649 -719 -720 0
-651 720 721 0
651 -721 0
-720 -721 0
722 990 -1165 0
652 722 -1165 0
-722 1165 0
-652 -722 -990 0
716 723 -786 0
660 717 723 0
716 717 723 0
660 723 -786 0
-660 -716 -723 0
-717 -723 786 0
724 -725 -1317 0
724 725 1317 0
-724 -725 1317 0
-724 725 -1317 0
725 -726 -694 0
725 734 -694 0
694 -725 0
-725 726 -734 0
655 -658 726 -727 0
-655 -658 726 -970 0
658 -726 0
655 -726 727 0
-655 -726 970 0
-657 727 -969 0
657 727 -728 0
-657 -727 969 0
657 -727 728 0
728 729 631 733 0
728 729 631 -732 0
-631 -728 0
-728 -729 0
-728 732 -733 0
729 -731 -765 1165 0
729 730 765 1165 0
-729 -1165 0
-729 731 -765 0
-729 -730 765 0
730 -966 -616 0
-730 966 0
616 -730 0
-649 731 967 0
649 730 731 0
-649 -731 -967 0
649 -730 -731 0
-651 731 732 0
651 -732 0
-731 -732 0
733 968 -1165 0
652 733 -1165 0
-733 1165 0
-652 -733 -968 0
727 734 -786 0
660 728 734 0
727 728 734 0
660 734 -786 0
-660 -727 -734 0
-728 -734 786 0
742 -615 735 0
736 -615 735 0
740 -615 735 0
615 -735 0
-735 -736 -740 -742 0
736 -644 -737 1956 0
-725 736 -644 -737 0
-736 737 0
644 -736 0
725 -1956 -736 0
705 737 738 -739 0
737 738 -739 -1970 0
-737 739 0
-737 -738 0
-705 1970 -737 0
-683 -1941 738 0
683 1941 738 0
-683 -738 1941 0
683 -738 -1941 0
-695 739 -1961 1970 0
695 739 1961 1970 0
695 -705 739 1961 0
-695 -705 739 -1961 0
695 -1961 -739 0
-695 1961 -739 0
705 -1970 -739 0
725 740 -741 -1637 0
725 740 741 1637 0
740 741 1637 -1956 0
740 -741 -1637 -1956 0
741 -1637 -740 0
-741 1637 -740 0
-725 1956 -740 0
684 741 -694 0
-684 -741 0
694 -741 0
-714 742 -1978 0
714 742 1978 0
-714 1978 -742 0
714 -1978 -742 0
-713 743 -615 0
640 743 -615 0
-725 743 -615 0
615 -743 0
-640 713 725 -743 0
-705 744 -615 0
641 744 -615 0
-713 744 -615 0
615 -744 0
-641 705 713 -744 0
-695 745 -615 0
642 745 -615 0
-713 745 -615 0
615 -745 0
-642 695 713 -745 0
-714 746 -615 0
642 746 -615 0
615 -746 0
-642 714 -746 0
684 747 -615 0
643 747 -615 0
615 -747 0
-643 -684 -747 0
683 748 -615 0
644 748 -615 0
615 -748 0
-683 -748 -644 0
644 749 -615 0
615 -749 0
-644 -749 0
-713 750 -615 0
725 750 -615 0
640 750 -615 0
615 -750 0
-640 713 -725 -750 0
705 751 -615 0
641 751 -615 0
-713 751 -615 0
615 -751 0
-641 -705 713 -751 0
695 752 -615 0
642 752 -615 0
-713 752 -615 0
615 -752 0
-642 -695 713 -752 0
714 753 -615 0
642 753 -615 0
615 -753 0
-642 -714 -753 0
-684 754 -615 0
643 754 -615 0
615 -754 0
-643 684 -754 0
-683 755 -615 0
644 755 -615 0
615 -755 0
683 -755 -644 0
1 614 0
-1 -614 0
2 614 0
-2 -614 0
3 735 0
-3 -735 0
89 -743 0
-89 743 0
90 -744 0
-90 744 0
91 -745 0
-91 745 0
92 -746 0
-92 746 0
97 -747 0
-97 747 0
110 -748 0
-110 748 0
210 -749 0
-210 749 0
394 -750 0
-394 750 0
395 -751 0
-395 751 0
396 -752 0
-396 752 0
397 -753 0
-397 753 0
402 -754 0
-402 754 0
415 -755 0
-415 755 0
515 -749 0
-515 749 0
-89 -394 2120 0
89 -2120 0
394 -2120 0
89 -1317 0
-89 1317 0
-90 -395 2121 0
90 -2121 0
395 -2121 0
90 -1331 0
-90 1331 0
-91 -396 2122 0
91 -2122 0
396 -2122 0
91 -1322 0
-91 1322 0
-92 -397 2123 0
92 -2123 0
397 -2123 0
92 -1339 0
-92 1339 0
-97 -402 2128 0
97 -2128 0
402 -2128 0
97 -998 0
-97 998 0
-110 -415 2141 0
110 -2141 0
415 -2141 0
110 -1302 0
-110 1302 0
-210 -515 2241 0
210 -2241 0
515 -2241 0
210 -1112 0
-210 1112 0
-1 0
-2 0
3 0
4 0
5 0
6 0
7 0
8 0
9 0
10 0
11 0
12 0
13 0
14 0
15 0
16 0
17 0
18 0
19 0
20 0
21 0
22 0
23 0
24 0
25 0
26 0
27 0
28 0
29 0
30 0
31 0
32 0
33 0
34 0
35 0
36 0
37 0
38 0
39 0
40 0
41 0
42 0
43 0
44 0
45 0
46 0
47 0
48 0
49 0
50 0
51 0
52 0
53 0
54 0
55 0
56 0
57 0
58 0
59 0
60 0
61 0
62 0
63 0
64 0
65 0
66 0
67 0
68 0
69 0
70 0
71 0
72 0
73 0
74 0
75 0
76 0
77 0
78 0
79 0
80 0
81 0
82 0
83 0
84 0
85 0
86 0
87 0
88 0
93 0
94 0
95 0
96 0
98 0
99 0
100 0
101 0
102 0
103 0
104 0
105 0
106 0
107 0
108 0
109 0
111 0
112 0
113 0
114 0
115 0
116 0
117 0
118 0
119 0
120 0
121 0
122 0
123 0
124 0
125 0
126 0
127 0
128 0
129 0
130 0
131 0
132 0
133 0
134 0
135 0
136 0
137 0
138 0
139 0
140 0
141 0
142 0
143 0
144 0
145 0
146 0
147 0
148 0
149 0
150 0
151 0
152 0
153 0
154 0
155 0
156 0
-157 0
158 0
159 0
160 0
161 0
162 0
163 0
164 0
165 0
166 0
167 0
168 0
169 0
170 0
171 0
172 0
173 0
174 0
175 0
176 0
177 0
178 0
179 0
180 0
181 0
182 0
183 0
184 0
185 0
186 0
187 0
188 0
189 0
190 0
191 0
192 0
193 0
194 0
195 0
196 0
197 0
198 0
199 0
200 0
201 0
202 0
203 0
204 0
205 0
206 0
207 0
208 0
209 0
-210 0
211 0
212 0
213 0
214 0
215 0
216 0
217 0
218 0
219 0
-220 0
221 0
222 0
223 0
224 0
225 0
226 0
227 0
228 0
229 0
230 0
231 0
232 0
233 0
234 0
235 0
236 0
237 0
238 0
239 0
240 0
241 0
242 0
243 0
244 0
245 0
246 0
247 0
-248 0
249 0
250 0
251 0
252 0
253 0
254 0
255 0
256 0
257 0
258 0
259 0
260 0
261 0
262 0
263 0
264 0
265 0
266 0
267 0
268 0
269 0
270 0
271 0
272 0
273 0
274 0
275 0
276 0
277 0
278 0
279 0
280 0
281 0
282 0
283 0
284 0
285 0
286 0
287 0
288 0
289 0
290 0
291 0
292 0
293 0
294 0
295 0
296 0
297 0
298 0
299 0
300 0
301 0
302 0
303 0
304 0
305 0
306 0
307 0
308 0
-309 0
-310 0
-311 0
-312 0
-313 0
-314 0
-315 0
-316 0
-317 0
-318 0
-319 0
-320 0
-321 0
-322 0
-323 0
-324 0
-325 0
-326 0
-327 0
-328 0
-329 0
-330 0
-331 0
-332 0
-333 0
-334 0
-335 0
-336 0
-337 0
-338 0
-339 0
-340 0
-341 0
-342 0
-343 0
-344 0
-345 0
-346 0
-347 0
-348 0
-349 0
-350 0
-351 0
-352 0
-353 0
-354 0
-355 0
-356 0
-357 0
-358 0
-359 0
-360 0
-361 0
-362 0
-363 0
-364 0
-365 0
-366 0
-367 0
-368 0
-369 0
-370 0
-371 0
-372 0
-373 0
-374 0
-375 0
-376 0
-377 0
-378 0
-379 0
-380 0
-381 0
-382 0
-383 0
-384 0
-385 0
-386 0
-387 0
-388 0
-389 0
-390 0
-391 0
-392 0
-393 0
-398 0
-399 0
-400 0
-401 0
-403 0
-404 0
-405 0
-406 0
-407 0
-408 0
-409 0
-410 0
-411 0
-412 0
-413 0
-414 0
-416 0
-417 0
-418 0
-419 0
-420 0
-421 0
-422 0
-423 0
-424 0
-425 0
-426 0
-427 0
-428 0
-429 0
-430 0
-431 0
-432 0
-433 0
-434 0
-435 0
-436 0
-437 0
-438 0
-439 0
-440 0
-441 0
-442 0
-443 0
-444 0
-445 0
-446 0
-447 0
-448 0
-449 0
-450 0
-451 0
-452 0
-453 0
-454 0
-455 0
-456 0
-457 0
-458 0
-459 0
-460 0
-461 0
462 0
-463 0
-464 0
-465 0
-466 0
-467 0
-468 0
-469 0
-470 0
-471 0
-472 0
-473 0
-474 0
-475 0
-476 0
-477 0
-478 0
-479 0
-480 0
-481 0
-482 0
-483 0
-484 0
-485 0
-486 0
-487 0
-488 0
-489 0
-490 0
-491 0
-492 0
-493 0
-494 0
-495 0
-496 0
-497 0
-498 0
-499 0
-500 0
-501 0
-502 0
-503 0
-504 0
-505 0
-506 0
-507 0
-508 0
-509 0
-510 0
-511 0
-512 0
-513 0
-514 0
-515 0
-516 0
-517 0
-518 0
-519 0
-520 0
-521 0
-522 0
-523 0
-524 0
525 0
-526 0
-527 0
-528 0
-529 0
-530 0
-531 0
-532 0
-533 0
-534 0
-535 0
-536 0
-537 0
-538 0
-539 0
-540 0
-541 0
-542 0
-543 0
-544 0
-545 0
-546 0
-547 0
-548 0
-549 0
-550 0
-551 0
-552 0
553 0
-554 0
-555 0
-556 0
-557 0
-558 0
-559 0
-560 0
-561 0
-562 0
-563 0
-564 0
-565 0
-566 0
-567 0
-568 0
-569 0
-570 0
-571 0
-572 0
-573 0
-574 0
-575 0
-576 0
-577 0
-578 0
-579 0
-580 0
-581 0
-582 0
-583 0
-584 0
-585 0
-586 0
-587 0
-588 0
-589 0
-590 0
-591 0
-592 0
-593 0
-594 0
-595 0
-596 0
-597 0
-598 0
-599 0
-600 0
-601 0
-602 0
-603 0
-604 0
-605 0
-606 0
-607 0
-608 0
-609 0
-610 0
-611 0
-612 0
-613 0
614 0
615 0
616 0
-617 0
621 0
-622 0
-626 0
630 0
-631 0
637 0
639 0
644 0
-645 0
-661 0
-669 0
677 0
-678 0
694 0
-735 0
736 0
737 0
-738 0
739 0
740 0
742 0
-749 0
824 0
853 0
-993 0
994 0
995 0
996 0
997 0
999 0
1000 0
1001 0
1002 0
1003 0
1004 0
1005 0
1006 0
1007 0
1008 0
1009 0
1010 0
1011 0
1012 0
1013 0
1014 0
1015 0
1016 0
1017 0
1018 0
1019 0
1020 0
1021 0
1022 0
1023 0
1024 0
1025 0
1026 0
1027 0
1028 0
1029 0
1030 0
1031 0
1032 0
1033 0
1034 0
1035 0
1036 0
1037 0
1038 0
1039 0
1040 0
1041 0
1042 0
1043 0
1044 0
1045 0
1046 0
1047 0
1048 0
1049 0
1050 0
1051 0
1052 0
1053 0
1054 0
1055 0
-1056 0
1057 0
1058 0
1059 0
1060 0
1061 0
1062 0
1063 0
1064 0
1065 0
1066 0
1067 0
1068 0
1069 0
1070 0
1071 0
1072 0
1073 0
1074 0
1075 0
1076 0
1077 0
1078 0
1079 0
1080 0
1081 0
1082 0
1083 0
-1084 0
1085 0
1086 0
1087 0
1088 0
1089 0
1090 0
1091 0
1092 0
1093 0
1094 0
1095 0
1096 0
1097 0
1098 0
1099 0
1100 0
1101 0
1102 0
1103 0
1104 0
1105 0
1106 0
1107 0
1108 0
1109 0
1110 0
1111 0
-1112 0
1113 0
1114 0
1115 0
1116 0
1117 0
1118 0
1119 0
1126 0
1154 0
1166 0
1167 0
1168 0
1169 0
1170 0
1171 0
1172 0
1173 0
1174 0
1175 0
1176 0
1177 0
1178 0
1179 0
1180 0
1181 0
1182 0
1183 0
1184 0
1185 0
1186 0
1187 0
1188 0
1189 0
1190 0
1191 0
1192 0
1193 0
1194 0
1195 0
1196 0
1197 0
1198 0
1199 0
1200 0
1201 0
1202 0
1203 0
1204 0
1205 0
1206 0
1207 0
1208 0
1209 0
1210 0
1211 0
1212 0
1213 0
1214 0
1215 0
1216 0
1217 0
1218 0
1219 0
1220 0
1221 0
1222 0
1223 0
1224 0
1225 0
1226 0
1227 0
1228 0
1229 0
1230 0
1231 0
1232 0
1233 0
1234 0
1235 0
1236 0
1237 0
1238 0
1239 0
1240 0
1241 0
1242 0
1243 0
1244 0
1245 0
1246 0
1247 0
1248 0
1249 0
1250 0
1251 0
1252 0
1253 0
1254 0
1255 0
1256 0
1257 0
1258 0
1259 0
1260 0
1261 0
1262 0
1263 0
1264 0
1265 0
1266 0
1267 0
1268 0
1269 0
1270 0
1271 0
1272 0
1273 0
1274 0
1275 0
1276 0
1277 0
1278 0
1279 0
1280 0
1281 0
1282 0
1283 0
1284 0
1285 0
1286 0
1287 0
1288 0
1289 0
1290 0
1291 0
1292 0
1293 0
1294 0
1295 0
1296 0
1297 0
1298 0
1299 0
1300 0
1301 0
1303 0
1304 0
1305 0
1306 0
1307 0
1308 0
1309 0
1310 0
1311 0
1312 0
1313 0
1314 0
1315 0
1316 0
1318 0
1319 0
1320 0
1321 0
1323 0
1324 0
1325 0
1326 0
1327 0
1328 0
1329 0
1330 0
1332 0
1333 0
1334 0
1335 0
1336 0
1337 0
1338 0
1340 0
1341 0
1342 0
1343 0
2034 0
-2035 0
-2036 0
-2037 0
-2038 0
-2039 0
-2040 0
-2041 0
-2042 0
-2043 0
-2044 0
-2045 0
-2046 0
-2047 0
-2048 0
-2049 0
-2050 0
-2051 0
-2052 0
-2053 0
-2054 0
-2055 0
-2056 0
-2057 0
-2058 0
-2059 0
-2060 0
-2061 0
-2062 0
-2063 0
-2064 0
-2065 0
-2066 0
-2067 0
-2068 0
-2069 0
-2070 0
-2071 0
-2072 0
-2073 0
-2074 0
-2075 0
-2076 0
-2077 0
-2078 0
-2079 0
-2080 0
-2081 0
-2082 0
-2083 0
-2084 0
-2085 0
-2086 0
-2087 0
-2088 0
-2089 0
-2090 0
-2091 0
-2092 0
-2093 0
-2094 0
-2095 0
-2096 0
-2097 0
-2098 0
-2099 0
-2100 0
-2101 0
-2102 0
-2103 0
-2104 0
-2105 0
-2106 0
-2107 0
-2108 0
-2109 0
-2110 0
-2111 0
-2112 0
-2113 0
-2114 0
-2115 0
-2116 0
-2117 0
-2118 0
-2119 0
-2124 0
-2125 0
-2126 0
-2127 0
-2129 0
-2130 0
-2131 0
-2132 0
-2133 0
-2134 0
-2135 0
-2136 0
-2137 0
-2138 0
-2139 0
-2140 0
-2142 0
-2143 0
-2144 0
-2145 0
-2146 0
-2147 0
-2148 0
-2149 0
-2150 0
-2151 0
-2152 0
-2153 0
-2154 0
-2155 0
-2156 0
-2157 0
-2158 0
-2159 0
-2160 0
-2161 0
-2162 0
-2163 0
-2164 0
-2165 0
-2166 0
-2167 0
-2168 0
-2169 0
-2170 0
-2171 0
-2172 0
-2173 0
-2174 0
-2175 0
-2176 0
-2177 0
-2178 0
-2179 0
-2180 0
-2181 0
-2182 0
-2183 0
-2184 0
-2185 0
-2186 0
-2187 0
-2188 0
-2189 0
-2190 0
-2191 0
-2192 0
-2193 0
-2194 0
-2195 0
-2196 0
-2197 0
-2198 0
-2199 0
-2200 0
-2201 0
-2202 0
-2203 0
-2204 0
-2205 0
-2206 0
-2207 0
-2208 0
-2209 0
-2210 0
-2211 0
-2212 0
-2213 0
-2214 0
-2215 0
-2216 0
-2217 0
-2218 0
-2219 0
-2220 0
-2221 0
-2222 0
-2223 0
-2224 0
-2225 0
-2226 0
-2227 0
-2228 0
-2229 0
-2230 0
-2231 0
-2232 0
-2233 0
-2234 0
-2235 0
-2236 0
-2237 0
-2238 0
-2239 0
-2240 0
-2241 0
-2242 0
-2243 0
-2244 0
-2245 0
-2246 0
-2247 0
-2248 0
-2249 0
-2250 0
-2251 0
-2252 0
-2253 0
-2254 0
-2255 0
-2256 0
-2257 0
-2258 0
-2259 0
-2260 0
-2261 0
-2262 0
-2263 0
-2264 0
-2265 0
-2266 0
-2267 0
-2268 0
-2269 0
-2270 0
-2271 0
-2272 0
-2273 0
-2274 0
-2275 0
-2276 0
-2277 0
-2278 0
-2279 0
-2280 0
-2281 0
-2282 0
-2283 0
-2284 0
-2285 0
-2286 0
-2287 0
-2288 0
-2289 0
-2290 0
-2291 0
-2292 0
-2293 0
-2294 0
-2295 0
-2296 0
-2297 0
-2298 0
-2299 0
-2300 0
-2301 0
-2302 0
-2303 0
-2304 0
-2305 0
-2306 0
-2307 0
-2308 0
-2309 0
-2310 0
-2311 0
-2312 0
-2313 0
-2314 0
-2315 0
-2316 0
-2317 0
-2318 0
-2319 0
-2320 0
-2321 0
-2322 0
-2323 0
-2324 0
-2325 0
-2326 0
-2327 0
-2328 0
-2329 0
-2330 0
-2331 0
-2332 0
-2333 0
-2334 0
-2335 0
-2336 0
-2337 0
-2338 0
-2339 0
-1592 0
-1593 0
-1594 0
-1595 0
-1596 0
-1597 0
-1598 0
-1599 0
-1600 0
-1601 0
-1602 0
-1804 0
-1603 0
-1604 0
-1605 0
-1512 0
-1513 0
-1514 0
-1515 0
-1606 0
-1516 0
-1607 0
-1517 0
-1518 0
-1519 0
-1608 0
-1520 0
-1609 0
-1521 0
-1522 0
-1523 0
-1524 0
-1610 0
-1525 0
-1526 0
-1527 0
-1528 0
-1529 0
-1530 0
-1611 0
-1531 0
-1612 0
-1532 0
-1613 0
-1614 0
-1533 0
-1534 0
-1535 0
-1536 0
-2013 0
-2014 0
-2015 0
-2016 0
-1615 0
-2017 0
-1616 0
-2018 0
-2019 0
-1617 0
-1618 0
-2020 0
-2021 0
-2022 0
-2023 0
-2024 0
-1619 0
-1438 0
-2025 0
-2026 0
-2027 0
-2028 0
-1620 0
-2029 0
-1621 0
-2030 0
-2031 0
-1622 0
-1623 0
-2032 0
-2033 0
-1759 0
-1624 0
-1625 0
-1760 0
-1761 0
-1762 0
-1626 0
-1763 0
-1764 0
-1765 0
-1766 0
-1767 0
-1768 0
-1769 0
-1627 0
-1770 0
-1771 0
-1772 0
-1773 0
-1774 0
-1775 0
-1628 0
-1776 0
-1629 0
-1777 0
-1778 0
-1630 0
-1779 0
-1631 0
-1780 0
-1781 0
-1782 0
-1783 0
-1784 0
-1785 0
-1786 0
-1787 0
-1788 0
-1789 0
-1790 0
-1439 0
-1791 0
-1792 0
-1793 0
-1794 0
-1795 0
-1796 0
-1797 0
-1798 0
-1799 0
-1800 0
-1537 0
-1538 0
-1539 0
-1540 0
-1541 0
-1542 0
-1543 0
-1544 0
-1545 0
-1546 0
-1547 0
-1548 0
-1549 0
-1550 0
-1551 0
-1552 0
-1553 0
-1554 0
-1555 0
-1556 0
-1557 0
-1558 0
-1559 0
-1560 0
-1561 0
-1562 0
-1563 0
-1564 0
-1565 0
-1566 0
-1801 0
-1567 0
-1568 0
-1569 0
-1570 0
-1571 0
-1572 0
-1573 0
-1574 0
-1575 0
-1576 0
-1577 0
-1578 0
-1983 0
-1984 0
-1985 0
-1986 0
-1987 0
-1988 0
-1989 0
-1990 0
-1991 0
-1992 0
-1993 0
-1994 0
-1995 0
-1996 0
-1997 0
-1998 0
-1999 0
-2000 0
-2001 0
-2002 0
-2003 0
-2004 0
-2005 0
-2006 0
-2007 0
-2008 0
-2009 0
-2010 0
-2011 0
-2012 0
-1395 0
-1396 0
-1397 0
-1398 0
-1399 0
-1400 0
-1401 0
-1402 0
-1403 0
-1404 0
-1405 0
-1406 0
-1407 0
-1408 0
-1409 0
-1410 0
-1411 0
-1412 0
-1413 0
-1414 0
-1415 0
-1416 0
-1417 0
-1418 0
-1419 0
-1420 0
-1421 0
-1422 0
-1423 0
-1802 0
-1424 0
-1425 0
-1426 0
-1427 0
-1428 0
-1429 0
-1430 0
-1431 0
-1432 0
-1433 0
-1434 0
-1435 0
-1436 0
-1437 0
-1440 0
-1441 0
-1442 0
-1443 0
-1444 0
-1445 0
-1446 0
-1447 0
-1448 0
-1449 0
-1450 0
-1451 0
-1452 0
-1453 0
-1454 0
-1455 0
-1456 0
-1457 0
-1458 0
-1459 0
-1460 0
-1461 0
-1462 0
-1463 0
-1464 0
-1803 0
-1465 0
-1466 0
-1467 0
-1468 0
-1469 0
-1470 0
-1471 0
-1472 0
-1473 0
-1474 0
-1475 0
-1476 0
-1477 0
-1478 0
-1479 0
-1480 0
-1481 0
-1482 0
-1483 0
-1484 0
-1485 0
-1486 0
-1487 0
-1488 0
-1489 0
-1490 0
-1491 0
-1492 0
-1493 0
-1494 0
-1495 0
-1496 0
-1497 0
-1498 0
-1499 0
-1500 0
-1501 0
-1502 0
-1503 0
-1504 0
-1505 0
-1506 0
-1507 0
-1508 0
-1509 0
-1510 0
-1511 0
-1579 0
-1580 0
-1581 0
-1582 0
-1583 0
-1584 0
-1585 0
-1586 0
-1587 0
-1588 0
-1589 0
-1590 0
-1591 0

